
===== New CPLEX run =====
Instance: /home/yorig/tuner/mpils-tests/instances/miplib/easy/lotsize.mps
Config: /scratch/yorig/mpils-results-grid-seconds-5-watchdog/easy/24proc/seed-5/4_lotsize_seed-5_20260504_011421/expansion/config_param_CPXPARAM_Preprocessing_Reduce_1_iter_4.prm
========================

Selected objective sense:  MINIMIZE
Selected objective  name:  R1921
Selected RHS        name:  B
Selected bound      name:  BOUND
Wall watchdog: enabled factor=1 grace=1 limit=6 seconds
Version identifier: 22.1.2.0 | 2024-11-26 | 0edbb82fd
CPXPARAM_Preprocessing_Reduce                    1
CPXPARAM_Threads                                 8
CPXPARAM_Parallel                                1
CPXPARAM_MIP_Cuts_Cliques                        2
CPXPARAM_Preprocessing_CoeffReduce               3
CPXPARAM_MIP_Cuts_Covers                         1
CPXPARAM_MIP_Strategy_SubAlgorithm               2
CPXPARAM_MIP_Cuts_FlowCovers                     2
CPXPARAM_MIP_Cuts_GUBCovers                      2
CPXPARAM_MIP_Limits_GomoryCand                   100
CPXPARAM_MIP_Cuts_PathCut                        2
CPXPARAM_MIP_Cuts_MIRCut                         2
CPXPARAM_MIP_Cuts_Disjunctive                    2
CPXPARAM_MIP_Limits_AggForCut                    10
CPXPARAM_Preprocessing_Symmetry                  2
CPXPARAM_Barrier_Ordering                        2
CPXPARAM_Preprocessing_Fill                      20
CPXPARAM_TimeLimit                               5
CPXPARAM_MIP_Limits_CutsFactor                   8
Tried aggregator 1 time.
Reduced MIP has 1920 rows, 2985 columns, and 6565 nonzeros.
Reduced MIP has 1195 binaries, 0 generals, 0 SOSs, and 0 indicators.
Presolve time = 0.00 sec. (2.77 ticks)
Probing time = 0.00 sec. (3.02 ticks)
Tried aggregator 1 time.
Reduced MIP has 1920 rows, 2985 columns, and 6565 nonzeros.
Reduced MIP has 1195 binaries, 0 generals, 0 SOSs, and 0 indicators.
Presolve time = 0.00 sec. (2.49 ticks)
Probing time = 0.00 sec. (2.49 ticks)
Clique table members: 145.
MIP emphasis: balance optimality and feasibility.
MIP search method: dynamic search.
Parallel mode: deterministic, using up to 8 threads.
Root relaxation solution time = 0.01 sec. (10.34 ticks)

        Nodes                                         Cuts/
   Node  Left     Objective  IInf  Best Integer    Best Bound    ItCnt     Gap

      0     0   348385.3466   471                 348385.3466     1479         
*     0+    0                       1.08462e+07   348385.3466            96.79%
*     0+    0                       1.08262e+07   348385.3466            96.78%
      0     0   564947.1442   563   1.08262e+07     Cuts: 580     2572   94.78%
      0     0   739512.8733   598   1.08262e+07     Cuts: 580     3296   93.17%
      0     0   900761.8698   612   1.08262e+07     Cuts: 580     4017   91.68%
      0     0  1041258.7979   606   1.08262e+07     Cuts: 580     4903   90.38%
      0     0  1134218.5668   582   1.08262e+07     Cuts: 580     5587   89.52%
*     0+    0                      2008267.0000  1134218.5668            43.52%
      0     0  1193162.4990   591  2008267.0000     Cuts: 580     6198   40.59%
*     0+    0                      1956699.0000  1193162.4990            39.02%
      0     0  1224607.0462   589  1956699.0000     Cuts: 580     6804   37.41%
      0     0  1253038.9273   604  1956699.0000     Cuts: 580     7404   35.96%
      0     0  1273284.7342   588  1956699.0000     Cuts: 580     7931   34.93%
      0     0  1288152.1575   568  1956699.0000     Cuts: 580     8375   34.17%
      0     0  1301756.9725   579  1956699.0000     Cuts: 580     8892   33.47%
      0     0  1310136.8492   576  1956699.0000     Cuts: 580     9301   33.04%
      0     0  1318833.6071   605  1956699.0000     Cuts: 580     9873   32.60%
      0     0  1325480.8355   585  1956699.0000     Cuts: 580    10344   32.26%
      0     0  1332617.3094   581  1956699.0000     Cuts: 580    10736   31.89%
      0     0  1337514.6948   579  1956699.0000     Cuts: 580    11131   31.64%
*     0+    0                      1924790.0000  1337514.6948            30.51%
      0     0  1342086.2552   609  1924790.0000     Cuts: 568    11572   30.27%
      0     0  1345622.2842   615  1924790.0000     Cuts: 580    11964   30.09%
*     0+    0                      1907439.0000  1345622.2842            29.45%
      0     0  1349050.5222   605  1907439.0000     Cuts: 536    12369   29.27%
      0     0  1351347.4954   628  1907439.0000     Cuts: 445    12727   29.15%
      0     0  1353514.2507   624  1907439.0000     Cuts: 463    13245   29.04%
*     0+    0                      1869941.0000  1353514.2507            27.62%
      0     0  1355058.6052   604  1869941.0000     Cuts: 387    13535   27.53%
      0     0  1356514.3250   613  1869941.0000     Cuts: 338    13908   27.46%
      0     0  1357436.4162   604  1869941.0000     Cuts: 444    14199   27.41%
*     0+    0                      1857479.0000  1357436.4162            26.92%
      0     0  1358670.2666   616  1857479.0000     Cuts: 373    14456   26.85%
      0     0  1359650.3234   603  1857479.0000     Cuts: 316    14693   26.80%
*     0+    0                      1853191.0000  1359650.3234            26.63%
      0     0  1360487.0330   610  1853191.0000     Cuts: 335    14926   26.59%
      0     0  1361310.1625   609  1853191.0000     Cuts: 301    15151   26.54%
*     0+    0                      1847210.0000  1361310.1625            26.30%
      0     0  1361996.5615   619  1847210.0000     Cuts: 293    15378   26.27%
      0     0  1363471.9933   607  1847210.0000     Cuts: 238    15627   26.19%
*     0+    0                      1788824.0000  1363471.9933            23.78%
      0     0  1364475.7360   616  1788824.0000     Cuts: 437    15860   23.72%
      0     0  1365290.9918   629  1788824.0000     Cuts: 329    16076   23.68%
      0     0  1365988.6706   620  1788824.0000     Cuts: 284    16278   23.64%
      0     0  1366718.0963   622  1788824.0000     Cuts: 311    16456   23.60%

GUB cover cuts applied:  0
Clique cuts applied:  0
Cover cuts applied:  5
Implied bound cuts applied:  1
Flow cuts applied:  869
Mixed integer rounding cuts applied:  867
Flow path cuts applied:  45
Multi commodity flow cuts applied:  5
Gomory fractional cuts applied:  7
Disjunctive cuts applied:  0
Cone linearizations applied:  0

Root node processing (before b&c):
  Real time             =    5.01 sec. (7064.38 ticks)
Parallel b&c, 8 threads:
  Real time             =    0.00 sec. (0.00 ticks)
  Sync time (average)   =    0.00 sec.
  Wait time (average)   =    0.00 sec.
                          ------------
Total (root+branch&cut) =    5.01 sec. (7064.38 ticks)
Gap: 23.6%
Upper bound: 1.78882e+06
Lower bound: 1.36672e+06
Termination status: Normal
End of CPLEX run. Time: 5.01371 seconds
